5903259308694440532507,12,1,2,01,14,1,2,013,1,1,2,05,2,1,2,015,13,1,2,06,11,1,2,08,8,1,2,07,13,1,2,02,6,1,2,011,12,1,2,05,14,1,2,02,14,1,2,01,13,1,2,03,10,1,2,01,4,1,2,03,9,1,2,07,4,1,2,04,9,1,2,013,6,1,2,012,6,1,2,05,2,1,2,014,13,1,2,05,10,1,2,015,15,1,2,04,6,1,2,011,1,1,2,02,3,1,2,08,12,1,2,01,9,1,2,08,12,1,2,03,6,1,2,02,7,1,2,08,2,1,2,013,3,1,2,04,6,1,2,07,1,1,2,011,7,1,2,011,9,1,2,07,8,1,2,014,9,1,2,012,5,1,2,06,11,1,2,01,11,1,2,02,1,1,2,03,5,1,2,01,7,1,2,09,3,1,2,012,3,1,2,010,8,1,2,012,3,1,2,0